r = [
0,20,12,38,30,5,6,14,4,42,21,22,32,16,20,16,21,14,16,10,42,21,32,14,19,43,0
];
p = [
0,21,4,18,30,16,19,4,28,23,16,21,15,1,30,29,19,9,11,24,22,9,15,28,29,22,0
];
e = [
0,4,13,4,3,15,14,12,16,4,3,13,3,1,12,4,20,20,3,12,11,16,16,2,12,3,0
];
d = [
0,438,408,509,344,438,365,340,467,544,396,493,336,495,386,343,348,525,425,471,425,356,539,423,540,441,556
];
d_bar = [
0,449,410,518,359,446,375,342,481,556,404,504,344,496,401,358,358,530,431,483,436,361,547,437,555,452,556
];
w = [
0,0.363636364,6.5,0.444444444,0.2,1.875,1.4,6,1.142857143,0.333333333,0.375,1.181818182,0.375,1,0.8,0.266666667,2,4,0.5,1,1,3.2,2,0.142857143,0.8,0.272727273,0
];
